
Gurobi 12.0.2 (win64) logging started Fri Jun  6 10:11:24 2025

Set parameter LogFile to value "C:\Ioana\_uni\honours\slp\algorithm\Main_files\results\others\prox_tubules_new\Task_029_Sample001_irr_gurobi.log"
Gurobi Optimizer version 12.0.2 build v12.0.2rc0 (win64 - Windows 11.0 (26100.2))

CPU model: Intel(R) Core(TM) Ultra 5 125H, instruction set [SSE2|AVX|AVX2]
Thread count: 14 physical cores, 18 logical processors, using up to 18 threads

Non-default parameters:
TimeLimit  2200

Optimize a model with 47658 rows, 34804 columns and 147851 nonzeros
Model fingerprint: 0x98e97603
Variable types: 17410 continuous, 17394 integer (17394 binary)
Coefficient statistics:
  Matrix range     [1e-04, 8e+04]
  Objective range  [1e-04, 1e+01]
  Bounds range     [1e+00, 1e+03]
  RHS range        [1e+00, 1e+00]
Presolve removed 31247 rows and 21845 columns
Presolve time: 0.32s
Presolved: 16411 rows, 12959 columns, 54592 nonzeros
Variable types: 6413 continuous, 6546 integer (6546 binary)
Found heuristic solution: objective 20.9890252

Root relaxation: objective 2.787949e+00, 0 iterations, 0.01 seconds (0.00 work units)

    Nodes    |    Current Node    |     Objective Bounds      |     Work
 Expl Unexpl |  Obj  Depth IntInf | Incumbent    BestBd   Gap | It/Node Time

*    0     0               0       2.7879494    2.78795  0.00%     -    0s

Explored 1 nodes (0 simplex iterations) in 0.42 seconds (0.45 work units)
Thread count was 18 (of 18 available processors)

Solution count 2: 2.78795 20.989 

Optimal solution found (tolerance 1.00e-04)
Best objective 2.787949393497e+00, best bound 2.787949393497e+00, gap 0.0000%
